<number of tasks>
58

<cycle time>
60

<task times>
1 10
2 53
3 41
4 36
5 35
6 17
7 34
8 23
9 14
10 52
11 33
12 34
13 12
14 52
15 12
16 33
17 44
18 7
19 15
20 13
21 29
22 37
23 43
24 23
25 24
26 9
27 16
28 12
29 26
30 22
31 51
32 47
33 34
34 23
35 12
36 52
37 12
38 33
39 44
40 7
41 15
42 13
43 29
44 37
45 43
46 23
47 24
48 9
49 16
50 12
51 26
52 12
53 52
54 12
55 33
56 44
57 7
58 15

<precedence relations>
1,9
2,25
3,21
3,22
4,10
5,36
6,23
6,24
7,43
8,44
9,11
11,13
11,14
11,15
12,17
13,17
14,17
15,17
16,18
17,20
18,19
19,23
20,21
20,25
21,26
21,44
22,27
23,31
24,31
25,38
26,29
27,30
28,32
28,33
29,31
30,34
31,36
32,45
33,35
34,36
35,43
36,37
36,38
37,39
37,40
37,41
38,52
39,43
40,43
41,42
42,43
43,45
44,45
45,46
45,48
45,49
46,47
46,50
47,51
48,55
49,58
50,58
51,52
52,53
53,54
54,55
54,56
55,57
56,57
57,58

<setup times forward>
1,2:14
1,3:3
1,4:7
1,5:4
1,7:12
1,8:9
1,9:10
1,10:9
1,12:2
1,18:4
1,19:3
1,22:6
1,23:1
1,24:6
1,27:1
1,28:10
1,30:5
1,32:7
1,33:12
1,34:4
1,35:3
2,1:14
2,3:17
2,4:21
2,5:10
2,6:14
2,7:2
2,8:23
2,9:24
2,10:5
2,11:24
2,12:16
2,13:16
2,14:10
2,15:16
2,16:14
2,17:5
2,18:10
2,19:17
2,20:5
2,21:19
2,22:8
2,23:13
2,24:8
2,25:2
2,26:19
2,27:13
2,28:24
2,29:2
2,30:19
2,31:12
2,32:21
2,33:2
2,34:10
2,35:11
2,36:17
2,37:21
2,39:11
2,41:16
2,42:16
2,43:16
2,44:23
2,45:21
2,46:21
2,47:20
2,48:11
2,49:21
2,50:11
2,51:11
3,1:3
3,2:17
3,4:4
3,5:7
3,6:3
3,7:15
3,8:6
3,9:7
3,10:12
3,11:7
3,12:1
3,13:1
3,14:7
3,15:1
3,16:3
3,17:12
3,18:7
3,20:12
3,21:2
3,22:9
3,23:4
3,24:9
3,25:15
3,28:7
3,32:4
3,33:15
3,35:6
4,1:7
4,2:21
4,3:4
4,5:11
4,6:7
4,7:19
4,8:2
4,9:3
4,10:16
4,11:3
4,12:5
4,13:5
4,14:11
4,15:5
4,16:7
4,17:16
4,18:11
4,19:4
4,20:16
4,21:2
4,22:13
4,23:8
4,24:13
4,25:19
4,26:2
4,27:8
4,28:3
4,29:19
4,30:2
4,31:9
4,33:19
4,34:11
4,35:10
4,36:4
4,38:1
4,39:10
4,40:21
4,41:5
4,42:5
4,43:5
4,44:2
4,47:1
4,48:10
4,50:10
4,51:10
4,52:10
4,53:12
4,54:17
4,55:22
4,56:17
4,57:22
4,58:22
5,1:4
5,2:10
5,3:7
5,4:11
5,6:4
5,7:8
5,8:13
5,9:14
5,10:5
5,11:14
5,12:6
5,13:6
5,15:6
5,16:4
5,17:5
5,19:7
5,20:5
5,21:9
5,22:2
5,23:3
5,24:2
5,25:8
5,26:9
5,27:3
5,28:14
5,29:8
5,30:9
5,31:2
5,32:11
5,33:8
5,35:1
5,36:7
5,44:13
6,2:14
6,3:3
6,4:7
6,5:4
6,7:12
6,8:9
6,9:10
6,10:9
6,11:10
6,12:2
6,13:2
6,14:4
6,15:2
6,17:9
6,18:4
6,19:3
6,20:9
6,21:5
6,22:6
6,23:1
6,24:6
6,25:12
6,26:5
6,27:1
6,28:10
6,29:12
6,30:5
6,32:7
6,33:12
6,34:4
6,35:3
6,44:9
7,1:12
7,2:2
7,3:15
7,4:19
7,5:8
7,6:12
7,8:21
7,9:22
7,10:3
7,11:22
7,12:14
7,13:14
7,14:8
7,15:14
7,16:12
7,17:3
7,18:8
7,19:15
7,20:3
7,21:17
7,22:6
7,23:11
7,24:6
7,26:17
7,27:11
7,28:22
7,30:17
7,31:10
7,32:19
7,34:8
7,35:9
7,36:15
7,37:19
7,38:18
7,39:9
7,40:2
7,41:14
7,42:14
7,43:14
7,44:21
8,1:9
8,2:23
8,3:6
8,4:2
8,5:13
8,6:9
8,7:21
8,9:1
8,10:18
8,11:1
8,12:7
8,13:7
8,14:13
8,15:7
8,16:9
8,17:18
8,18:13
8,19:6
8,20:18
8,21:4
8,22:15
8,23:10
8,24:15
8,25:21
8,26:4
8,27:10
8,28:1
8,29:21
8,30:4
8,31:11
8,32:2
8,33:21
8,34:13
8,35:12
8,36:6
8,37:2
8,38:3
8,39:12
8,40:23
8,41:7
8,42:7
8,43:7
9,2:24
9,3:7
9,4:3
9,5:14
9,6:10
9,7:22
9,8:1
9,10:19
9,12:8
9,16:10
9,18:14
9,19:7
9,22:16
9,23:11
9,24:16
9,27:11
9,30:5
9,32:3
9,33:22
9,34:14
9,35:13
10,1:9
10,2:5
10,3:12
10,5:5
10,6:9
10,7:3
10,8:18
10,9:19
10,11:19
10,12:11
10,13:11
10,14:5
10,15:11
10,16:9
10,18:5
10,19:12
10,21:14
10,22:3
10,23:8
10,24:3
10,25:3
10,26:14
10,27:8
10,28:19
10,29:3
10,30:14
10,31:7
10,32:16
10,33:3
10,34:5
10,35:6
10,36:12
10,37:16
10,38:15
10,39:6
10,40:5
10,41:11
10,42:11
10,43:11
10,44:18
10,45:16
10,46:16
10,47:15
10,48:6
10,49:16
10,50:6
10,51:6
10,52:6
10,53:4
10,54:1
10,55:6
10,56:1
10,57:6
10,58:6
11,2:24
11,3:7
11,4:3
11,5:14
11,6:10
11,7:22
11,8:1
11,10:19
11,12:8
11,13:8
11,14:14
11,15:8
11,16:10
11,18:14
11,19:7
11,22:16
11,23:11
11,24:16
11,27:11
11,30:5
11,32:3
11,33:22
11,34:14
11,35:13
12,1:2
12,2:16
12,3:1
12,4:5
12,5:6
12,6:2
12,7:14
12,8:7
12,9:8
12,10:11
12,11:8
12,14:6
12,16:2
12,17:11
12,18:6
12,19:1
12,22:8
12,23:3
12,24:8
12,27:3
12,28:8
12,30:3
12,32:5
12,33:14
12,34:6
12,35:5
13,2:16
13,3:1
13,4:5
13,5:6
13,6:2
13,7:14
13,8:7
13,10:11
13,14:6
13,16:2
13,17:11
13,18:6
13,19:1
13,22:8
13,23:3
13,24:8
13,27:3
13,28:8
13,30:3
13,32:5
13,33:14
13,34:6
13,35:5
14,2:10
14,3:7
14,4:11
14,6:4
14,7:8
14,8:13
14,10:5
14,12:6
14,13:6
14,15:6
14,16:4
14,17:5
14,19:7
14,22:2
14,23:3
14,24:2
14,27:3
14,28:14
14,30:9
14,32:11
14,33:8
14,35:1
15,2:16
15,3:1
15,4:5
15,5:6
15,6:2
15,7:14
15,8:7
15,10:11
15,14:6
15,16:2
15,17:11
15,18:6
15,19:1
15,22:8
15,23:3
15,24:8
15,27:3
15,28:8
15,30:3
15,32:5
15,33:14
15,34:6
15,35:5
16,2:14
16,3:3
16,4:7
16,5:4
16,7:12
16,8:9
16,9:10
16,10:9
16,11:10
16,12:2
16,13:2
16,14:4
16,15:2
16,17:9
16,18:4
16,20:9
16,21:5
16,22:6
16,24:6
16,25:12
16,26:5
16,27:1
16,28:10
16,29:12
16,30:5
16,32:7
16,33:12
16,34:4
16,35:3
16,44:9
17,2:5
17,3:12
17,4:16
17,5:5
17,6:9
17,7:3
17,8:18
17,16:9
17,18:5
17,19:12
17,22:3
17,23:8
17,24:3
17,27:8
17,28:19
17,30:14
17,32:16
17,33:3
17,34:5
17,35:6
18,1:4
18,2:10
18,3:7
18,4:11
18,6:4
18,7:8
18,8:13
18,9:14
18,10:5
18,11:14
18,12:6
18,13:6
18,15:6
18,17:5
18,19:7
18,20:5
18,21:9
18,22:2
18,24:2
18,25:8
18,26:9
18,27:3
18,28:14
18,29:8
18,30:9
18,32:11
18,33:8
18,35:1
18,44:13
19,1:3
19,2:17
19,4:4
19,5:7
19,6:3
19,7:15
19,8:6
19,9:7
19,10:12
19,11:7
19,12:1
19,13:1
19,14:7
19,15:1
19,17:12
19,20:12
19,21:2
19,22:9
19,23:4
19,24:9
19,25:15
19,26:2
19,27:4
19,28:7
19,29:15
19,30:2
19,32:4
19,33:15
19,34:7
19,35:6
19,44:6
20,2:5
20,3:12
20,4:16
20,5:5
20,6:9
20,7:3
20,8:18
20,16:9
20,18:5
20,19:12
20,21:14
20,22:3
20,23:8
20,24:3
20,25:3
20,27:8
20,28:19
20,30:14
20,32:16
20,33:3
20,34:5
20,35:6
21,2:19
21,4:2
21,5:9
21,6:5
21,7:17
21,8:4
21,10:14
21,16:5
21,18:9
21,19:2
21,22:11
21,23:6
21,24:11
21,25:17
21,27:6
21,28:5
21,32:2
21,33:17
21,34:9
21,35:8
21,44:4
22,1:6
22,2:8
22,4:13
22,5:2
22,6:6
22,7:6
22,8:15
22,9:16
22,10:3
22,11:16
22,12:8
22,13:8
22,14:2
22,15:8
22,16:6
22,17:3
22,18:2
22,19:9
22,20:3
22,21:11
22,23:5
22,25:6
22,26:11
22,27:5
22,28:16
22,29:6
22,31:4
22,32:13
22,33:6
22,35:3
22,44:15
23,1:1
23,2:13
23,3:4
23,4:8
23,5:3
23,7:11
23,8:10
23,9:11
23,10:8
23,11:11
23,12:3
23,13:3
23,14:3
23,15:3
23,17:8
23,20:8
23,21:6
23,22:5
23,24:5
23,25:11
23,26:6
23,28:11
23,29:11
23,30:6
23,31:1
23,32:8
23,33:11
23,34:3
23,35:2
23,44:10
24,1:6
24,2:8
24,3:9
24,4:13
24,5:2
24,7:6
24,8:15
24,9:16
24,10:3
24,11:16
24,12:8
24,13:8
24,14:2
24,15:8
24,16:6
24,17:3
24,18:2
24,19:9
24,20:3
24,21:11
24,23:5
24,25:6
24,26:11
24,27:5
24,28:16
24,29:6
24,30:11
24,31:4
24,32:13
24,33:6
24,34:2
24,35:3
24,44:15
25,3:15
25,4:19
25,5:8
25,6:12
25,8:21
25,10:3
25,16:12
25,18:8
25,19:15
25,21:17
25,22:6
25,23:11
25,24:6
25,26:17
25,27:11
25,28:22
25,30:17
25,31:10
25,32:19
25,34:8
25,35:9
25,36:15
25,37:19
25,38:18
25,39:9
25,40:2
25,41:14
25,42:14
25,43:14
25,44:21
25,45:19
25,46:19
25,47:18
25,48:9
25,49:19
25,50:9
25,51:9
26,2:19
26,4:2
26,5:9
26,6:5
26,7:17
26,8:4
26,10:14
26,16:5
26,18:9
26,19:2
26,22:11
26,23:6
26,24:11
26,25:17
26,27:6
26,28:5
26,29:17
26,32:2
26,33:17
26,34:9
26,35:8
26,44:4
27,1:1
27,2:13
27,4:8
27,5:3
27,6:1
27,7:11
27,8:10
27,9:11
27,10:8
27,11:11
27,12:3
27,13:3
27,14:3
27,15:3
27,16:1
27,17:8
27,18:3
27,19:4
27,20:8
27,21:6
27,24:5
27,25:11
27,26:6
27,28:11
27,29:11
27,30:6
27,31:1
27,32:8
27,33:11
27,35:2
27,44:10
28,1:10
28,2:24
28,3:7
28,4:3
28,5:14
28,6:10
28,7:22
28,8:1
28,10:19
28,12:8
28,13:8
28,14:14
28,15:8
28,16:10
28,17:19
28,18:14
28,19:7
28,20:19
28,21:5
28,22:16
28,23:11
28,24:16
28,25:22
28,26:5
28,27:11
28,29:22
28,30:5
28,31:12
28,32:3
28,33:22
28,34:14
28,36:7
28,37:3
28,38:4
28,39:13
28,40:24
28,41:8
28,42:8
28,44:1
29,2:2
29,4:19
29,5:8
29,6:12
29,8:21
29,10:3
29,16:12
29,18:8
29,19:15
29,22:6
29,23:11
29,24:6
29,27:11
29,28:22
29,30:17
29,31:10
29,32:19
29,34:8
29,35:9
29,44:21
30,1:5
30,2:19
30,4:2
30,5:9
30,6:5
30,7:17
30,8:4
30,9:5
30,10:14
30,11:5
30,12:3
30,13:3
30,14:9
30,15:3
30,16:5
30,17:14
30,18:9
30,19:2
30,20:14
30,23:6
30,24:11
30,25:17
30,28:5
30,29:17
30,31:7
30,32:2
30,33:17
30,34:9
30,35:8
30,44:4
31,2:12
31,4:9
31,5:2
31,7:10
31,8:11
31,10:7
31,22:4
31,25:10
31,27:1
31,28:12
31,30:7
31,32:9
31,33:10
31,34:2
31,35:1
31,36:5
31,44:11
32,1:7
32,2:21
32,3:4
32,5:11
32,6:7
32,7:19
32,8:2
32,9:3
32,10:16
32,11:3
32,12:5
32,13:5
32,14:11
32,15:5
32,16:7
32,17:16
32,18:11
32,19:4
32,20:16
32,21:2
32,22:13
32,23:8
32,24:13
32,25:19
32,26:2
32,27:8
32,29:19
32,30:2
32,31:9
32,33:19
32,34:11
32,35:10
32,36:4
32,38:1
32,39:10
32,40:21
32,41:5
32,42:5
32,43:5
32,44:2
33,1:12
33,2:2
33,3:15
33,4:19
33,5:8
33,6:12
33,8:21
33,9:22
33,10:3
33,11:22
33,12:14
33,13:14
33,14:8
33,15:14
33,16:12
33,17:3
33,18:8
33,19:15
33,20:3
33,21:17
33,22:6
33,23:11
33,24:6
33,26:17
33,27:11
33,30:17
33,31:10
33,32:19
33,34:8
33,35:9
33,36:15
33,37:19
33,38:18
33,39:9
33,40:2
33,41:14
33,42:14
33,44:21
34,1:4
34,2:10
34,4:11
34,6:4
34,7:8
34,8:13
34,9:14
34,10:5
34,11:14
34,12:6
34,13:6
34,15:6
34,16:4
34,17:5
34,19:7
34,20:5
34,21:9
34,23:3
34,24:2
34,25:8
34,26:9
34,28:14
34,29:8
34,31:2
34,32:11
34,33:8
34,35:1
34,36:7
34,44:13
35,1:3
35,2:11
35,3:6
35,4:10
35,5:1
35,6:3
35,7:9
35,8:12
35,9:13
35,10:6
35,11:13
35,12:5
35,13:5
35,14:1
35,15:5
35,16:3
35,17:6
35,18:1
35,19:6
35,20:6
35,21:8
35,22:3
35,23:2
35,24:3
35,25:9
35,26:8
35,27:2
35,29:9
35,30:8
35,31:1
35,32:10
35,34:1
35,36:6
35,37:10
35,38:9
35,40:11
35,41:5
35,42:5
35,43:5
35,44:12
36,2:17
36,4:4
36,7:15
36,8:6
36,10:12
36,25:15
36,28:7
36,32:4
36,33:15
36,35:6
36,37:4
36,38:3
36,44:6
37,2:21
37,7:19
37,8:2
37,10:16
37,25:19
37,28:3
37,33:19
37,35:10
37,38:1
37,39:10
37,40:21
37,41:5
37,44:2
38,4:1
38,7:18
38,8:3
38,10:15
38,28:4
38,32:1
38,33:18
38,35:9
38,37:1
38,39:9
38,40:20
38,41:4
38,42:4
38,43:4
38,44:3
38,45:1
38,46:1
38,48:9
38,49:1
38,50:9
38,51:9
38,52:9
39,2:11
39,4:10
39,7:9
39,8:12
39,10:6
39,25:9
39,28:13
39,32:10
39,33:9
39,38:9
39,40:11
39,41:5
39,42:5
39,43:5
39,44:12
40,4:21
40,7:2
40,8:23
40,10:5
40,25:2
40,28:24
40,32:21
40,33:2
40,35:11
40,38:20
40,39:11
40,41:16
40,42:16
40,43:16
40,44:23
41,2:16
41,4:5
41,7:14
41,8:7
41,10:11
41,25:14
41,28:8
41,32:5
41,33:14
41,35:5
41,38:4
41,39:5
41,40:16
41,44:7
42,2:16
42,4:5
42,7:14
42,8:7
42,10:11
42,25:14
42,28:8
42,32:5
42,33:14
42,35:5
42,38:4
42,39:5
42,40:16
42,44:7
43,2:16
43,4:5
43,8:7
43,10:11
43,25:14
43,32:5
43,38:4
43,44:7
43,45:5
44,2:23
44,4:2
44,5:13
44,6:9
44,7:21
44,10:18
44,16:9
44,18:13
44,19:6
44,22:15
44,23:10
44,24:15
44,25:21
44,26:4
44,27:10
44,28:1
44,29:21
44,30:4
44,31:11
44,32:2
44,33:21
44,34:13
44,35:12
44,36:6
44,37:2
44,38:3
44,39:12
44,40:23
44,41:7
44,42:7
44,43:7
44,45:2
45,2:21
45,10:16
45,25:19
45,38:1
45,48:10
46,2:21
46,10:16
46,25:19
46,38:1
46,47:1
46,48:10
46,50:10
47,2:20
47,4:1
47,10:15
47,25:18
47,48:9
47,49:1
47,50:9
47,51:9
48,2:11
48,4:10
48,10:6
48,25:9
48,38:9
48,46:10
48,47:9
48,49:10
48,53:2
48,54:7
48,55:12
48,56:7
49,2:21
49,10:16
49,25:19
49,38:1
49,47:1
49,48:10
49,50:10
49,51:10
49,52:10
49,53:12
49,54:17
49,55:22
49,56:17
49,57:22
49,58:22
50,2:11
50,4:10
50,10:6
50,25:9
50,38:9
50,47:9
50,49:10
50,53:2
50,54:7
50,55:12
50,56:7
50,57:12
50,58:12
51,2:11
51,4:10
51,10:6
51,25:9
51,38:9
51,49:10
52,4:10
52,10:6
52,49:10
52,53:2
53,4:12
53,10:4
53,48:2
53,49:12
53,50:2
53,54:5
54,4:17
54,10:1
54,48:7
54,49:17
54,50:7
54,55:5
55,4:22
55,10:6
55,49:22
55,50:12
55,56:5
56,4:17
56,10:1
56,48:7
56,49:17
56,50:7
56,55:5
56,57:5
57,4:22
57,10:6
57,49:22
57,50:12
58,4:22
58,10:6

<setup times backward>
1,2:14
1,5:4
1,7:12
1,10:9
1,18:4
1,22:6
1,23:1
1,24:6
1,27:1
1,33:12
1,34:4
1,35:3
3,1:3
3,2:17
3,5:7
3,6:3
3,7:15
3,10:12
3,12:1
3,13:1
3,14:7
3,15:1
3,16:3
3,17:12
3,18:7
3,20:12
3,23:4
3,24:9
3,25:15
3,33:15
3,35:6
4,1:7
4,2:21
4,3:4
4,5:11
4,6:7
4,7:19
4,12:5
4,13:5
4,14:11
4,15:5
4,16:7
4,17:16
4,18:11
4,19:4
4,20:16
4,21:2
4,22:13
4,23:8
4,24:13
4,25:19
4,26:2
4,27:8
4,29:19
4,30:2
4,31:9
4,33:19
4,34:11
4,35:10
4,36:4
4,38:1
4,39:10
4,40:21
4,41:5
4,42:5
4,43:5
4,47:1
4,48:10
4,50:10
4,51:10
4,52:10
4,53:12
4,54:17
4,55:22
4,56:17
4,57:22
4,58:22
5,2:10
5,7:8
5,10:5
5,17:5
5,20:5
5,22:2
5,24:2
5,25:8
5,29:8
5,33:8
6,2:14
6,5:4
6,7:12
6,10:9
6,14:4
6,17:9
6,18:4
6,20:9
6,22:6
6,25:12
6,27:1
6,29:12
6,33:12
6,34:4
6,35:3
7,2:2
7,40:2
8,1:9
8,2:23
8,3:6
8,4:2
8,5:13
8,6:9
8,7:21
8,10:18
8,12:7
8,13:7
8,14:13
8,15:7
8,16:9
8,17:18
8,18:13
8,19:6
8,20:18
8,21:4
8,22:15
8,23:10
8,24:15
8,25:21
8,26:4
8,27:10
8,29:21
8,30:4
8,31:11
8,32:2
8,33:21
8,34:13
8,35:12
8,36:6
8,37:2
8,38:3
8,39:12
8,40:23
8,41:7
8,42:7
8,43:7
9,1:10
9,2:24
9,3:7
9,4:3
9,5:14
9,6:10
9,7:22
9,8:1
9,10:19
9,12:8
9,16:10
9,18:14
9,19:7
9,22:16
9,23:11
9,24:16
9,27:11
9,30:5
9,32:3
9,33:22
9,34:14
9,35:13
10,2:5
10,7:3
10,25:3
10,29:3
10,33:3
10,40:5
10,54:1
10,55:6
10,56:1
10,57:6
10,58:6
11,1:10
11,2:24
11,3:7
11,4:3
11,5:14
11,6:10
11,7:22
11,8:1
11,10:19
11,12:8
11,16:10
11,18:14
11,19:7
11,22:16
11,23:11
11,24:16
11,27:11
11,30:5
11,32:3
11,33:22
11,34:14
11,35:13
12,1:2
12,2:16
12,5:6
12,6:2
12,7:14
12,10:11
12,14:6
12,16:2
12,18:6
12,22:8
12,23:3
12,24:8
12,27:3
12,33:14
12,34:6
12,35:5
13,1:2
13,2:16
13,5:6
13,6:2
13,7:14
13,10:11
13,14:6
13,16:2
13,18:6
13,22:8
13,23:3
13,24:8
13,27:3
13,33:14
13,34:6
13,35:5
14,2:10
14,7:8
14,10:5
14,22:2
14,24:2
14,33:8
15,1:2
15,2:16
15,5:6
15,6:2
15,7:14
15,10:11
15,14:6
15,16:2
15,18:6
15,22:8
15,23:3
15,24:8
15,27:3
15,33:14
15,34:6
15,35:5
16,2:14
16,5:4
16,7:12
16,10:9
16,14:4
16,17:9
16,20:9
16,22:6
16,24:6
16,25:12
16,27:1
16,29:12
16,33:12
16,34:4
16,35:3
17,2:5
17,7:3
17,33:3
18,2:10
18,7:8
18,10:5
18,17:5
18,20:5
18,22:2
18,24:2
18,25:8
18,29:8
18,33:8
19,1:3
19,2:17
19,5:7
19,6:3
19,7:15
19,10:12
19,12:1
19,13:1
19,14:7
19,15:1
19,16:3
19,17:12
19,18:7
19,20:12
19,22:9
19,24:9
19,25:15
19,27:4
19,29:15
19,33:15
19,34:7
19,35:6
20,2:5
20,7:3
20,33:3
21,1:5
21,2:19
21,3:2
21,5:9
21,6:5
21,7:17
21,10:14
21,12:3
21,13:3
21,14:9
21,15:3
21,16:5
21,17:14
21,18:9
21,19:2
21,20:14
21,22:11
21,23:6
21,24:11
21,25:17
21,27:6
21,33:17
21,34:9
21,35:8
22,2:8
22,7:6
22,10:3
22,17:3
22,20:3
22,25:6
22,29:6
22,33:6
23,2:13
23,5:3
23,7:11
23,10:8
23,14:3
23,17:8
23,18:3
23,20:8
23,22:5
23,24:5
23,25:11
23,29:11
23,33:11
23,34:3
23,35:2
24,2:8
24,7:6
24,10:3
24,17:3
24,20:3
24,25:6
24,29:6
24,33:6
25,2:2
25,40:2
26,1:5
26,2:19
26,3:2
26,5:9
26,6:5
26,7:17
26,10:14
26,12:3
26,13:3
26,14:9
26,15:3
26,16:5
26,17:14
26,18:9
26,19:2
26,20:14
26,22:11
26,23:6
26,24:11
26,25:17
26,27:6
26,33:17
26,34:9
26,35:8
27,2:13
27,5:3
27,7:11
27,10:8
27,14:3
27,17:8
27,18:3
27,20:8
27,22:5
27,24:5
27,25:11
27,29:11
27,31:1
27,33:11
27,35:2
28,1:10
28,2:24
28,3:7
28,4:3
28,5:14
28,6:10
28,7:22
28,8:1
28,10:19
28,12:8
28,13:8
28,14:14
28,15:8
28,16:10
28,17:19
28,18:14
28,19:7
28,20:19
28,21:5
28,22:16
28,23:11
28,24:16
28,25:22
28,26:5
28,27:11
28,29:22
28,30:5
28,31:12
28,34:14
28,36:7
28,37:3
28,38:4
28,39:13
28,40:24
28,41:8
28,42:8
28,44:1
29,2:2
30,1:5
30,2:19
30,3:2
30,5:9
30,6:5
30,7:17
30,10:14
30,12:3
30,13:3
30,14:9
30,15:3
30,16:5
30,17:14
30,18:9
30,19:2
30,20:14
30,22:11
30,23:6
30,24:11
30,25:17
30,27:6
30,29:17
30,31:7
30,33:17
30,35:8
31,2:12
31,5:2
31,7:10
31,10:7
31,14:2
31,17:7
31,18:2
31,20:7
31,22:4
31,24:4
31,25:10
31,29:10
31,33:10
31,34:2
31,35:1
32,1:7
32,2:21
32,3:4
32,5:11
32,6:7
32,7:19
32,10:16
32,12:5
32,13:5
32,14:11
32,15:5
32,16:7
32,17:16
32,18:11
32,19:4
32,20:16
32,21:2
32,22:13
32,23:8
32,24:13
32,25:19
32,26:2
32,27:8
32,29:19
32,30:2
32,31:9
32,33:19
32,34:11
32,35:10
32,36:4
32,38:1
32,39:10
32,40:21
32,41:5
32,42:5
32,43:5
33,2:2
33,40:2
34,2:10
34,7:8
34,10:5
34,17:5
34,20:5
34,22:2
34,24:2
34,25:8
34,29:8
34,33:8
35,2:11
35,5:1
35,7:9
35,10:6
35,14:1
35,17:6
35,18:1
35,20:6
35,22:3
35,24:3
35,25:9
35,29:9
35,33:9
35,34:1
35,40:11
36,1:3
36,2:17
36,5:7
36,6:3
36,7:15
36,10:12
36,12:1
36,13:1
36,14:7
36,15:1
36,16:3
36,17:12
36,18:7
36,20:12
36,22:9
36,23:4
36,24:9
36,25:15
36,27:4
36,29:15
36,31:5
36,33:15
36,34:7
36,35:6
37,1:7
37,2:21
37,3:4
37,5:11
37,6:7
37,7:19
37,10:16
37,12:5
37,13:5
37,14:11
37,15:5
37,16:7
37,17:16
37,18:11
37,19:4
37,20:16
37,21:2
37,22:13
37,23:8
37,24:13
37,25:19
37,26:2
37,27:8
37,29:19
37,30:2
37,31:9
37,33:19
37,34:11
37,35:10
37,36:4
37,38:1
38,1:6
38,2:20
38,3:3
38,5:10
38,6:6
38,7:18
38,10:15
38,12:4
38,13:4
38,14:10
38,15:4
38,16:6
38,17:15
38,18:10
38,19:3
38,20:15
38,21:1
38,22:12
38,23:7
38,24:12
38,25:18
38,26:1
38,27:7
38,29:18
38,30:1
38,31:8
38,33:18
38,34:10
38,35:9
38,36:3
38,39:9
38,40:20
38,41:4
38,42:4
38,43:4
38,48:9
38,50:9
38,51:9
39,2:11
39,5:1
39,7:9
39,10:6
39,14:1
39,17:6
39,18:1
39,20:6
39,22:3
39,24:3
39,25:9
39,29:9
39,33:9
39,34:1
39,40:11
41,1:2
41,2:16
41,5:6
41,6:2
41,7:14
41,10:11
41,14:6
41,16:2
41,17:11
41,18:6
41,20:11
41,22:8
41,23:3
41,24:8
41,25:14
41,27:3
41,29:14
41,31:4
41,33:14
41,34:6
41,35:5
41,39:5
41,40:16
42,1:2
42,2:16
42,5:6
42,6:2
42,7:14
42,10:11
42,14:6
42,16:2
42,17:11
42,18:6
42,20:11
42,22:8
42,23:3
42,24:8
42,25:14
42,27:3
42,29:14
42,31:4
42,33:14
42,34:6
42,35:5
42,39:5
42,40:16
43,1:2
43,2:16
43,5:6
43,6:2
43,7:14
43,10:11
43,14:6
43,16:2
43,17:11
43,18:6
43,20:11
43,22:8
43,23:3
43,24:8
43,25:14
43,27:3
43,29:14
43,31:4
43,33:14
43,34:6
43,35:5
43,39:5
43,40:16
44,1:9
44,2:23
44,3:6
44,4:2
44,5:13
44,6:9
44,7:21
44,10:18
44,12:7
44,13:7
44,14:13
44,15:7
44,16:9
44,17:18
44,18:13
44,19:6
44,20:18
44,21:4
44,22:15
44,23:10
44,24:15
44,25:21
44,26:4
44,27:10
44,29:21
44,30:4
44,31:11
44,32:2
44,33:21
44,34:13
44,35:12
44,36:6
44,37:2
44,38:3
44,39:12
44,40:23
44,41:7
44,42:7
44,43:7
45,1:7
45,2:21
45,3:4
45,5:11
45,6:7
45,7:19
45,10:16
45,12:5
45,13:5
45,14:11
45,15:5
45,16:7
45,17:16
45,18:11
45,19:4
45,20:16
45,21:2
45,22:13
45,23:8
45,24:13
45,25:19
45,26:2
45,27:8
45,29:19
45,30:2
45,31:9
45,33:19
45,34:11
45,35:10
45,36:4
45,38:1
45,39:10
45,40:21
45,41:5
45,42:5
45,43:5
46,1:7
46,2:21
46,3:4
46,5:11
46,6:7
46,7:19
46,10:16
46,12:5
46,13:5
46,14:11
46,15:5
46,16:7
46,17:16
46,18:11
46,19:4
46,20:16
46,21:2
46,22:13
46,23:8
46,24:13
46,25:19
46,26:2
46,27:8
46,29:19
46,30:2
46,31:9
46,33:19
46,34:11
46,35:10
46,36:4
46,38:1
46,39:10
46,40:21
46,41:5
46,42:5
46,43:5
46,48:10
47,1:6
47,2:20
47,3:3
47,5:10
47,6:6
47,7:18
47,10:15
47,12:4
47,13:4
47,14:10
47,15:4
47,16:6
47,17:15
47,18:10
47,19:3
47,20:15
47,21:1
47,22:12
47,23:7
47,24:12
47,25:18
47,26:1
47,27:7
47,29:18
47,30:1
47,31:8
47,33:18
47,34:10
47,35:9
47,36:3
47,39:9
47,40:20
47,41:4
47,42:4
47,43:4
47,48:9
47,50:9
48,2:11
48,5:1
48,7:9
48,10:6
48,14:1
48,17:6
48,18:1
48,20:6
48,22:3
48,24:3
48,25:9
48,29:9
48,33:9
48,34:1
48,40:11
48,53:2
48,54:7
48,56:7
49,1:7
49,2:21
49,3:4
49,5:11
49,6:7
49,7:19
49,10:16
49,12:5
49,13:5
49,14:11
49,15:5
49,16:7
49,17:16
49,18:11
49,19:4
49,20:16
49,21:2
49,22:13
49,23:8
49,24:13
49,25:19
49,26:2
49,27:8
49,29:19
49,30:2
49,31:9
49,33:19
49,34:11
49,35:10
49,36:4
49,38:1
49,39:10
49,40:21
49,41:5
49,42:5
49,43:5
49,47:1
49,48:10
49,50:10
49,51:10
49,52:10
49,53:12
49,54:17
49,55:22
49,56:17
49,57:22
50,2:11
50,5:1
50,7:9
50,10:6
50,14:1
50,17:6
50,18:1
50,20:6
50,22:3
50,24:3
50,25:9
50,29:9
50,33:9
50,34:1
50,40:11
50,53:2
50,54:7
50,55:12
50,56:7
50,57:12
51,2:11
51,5:1
51,7:9
51,10:6
51,14:1
51,17:6
51,18:1
51,20:6
51,22:3
51,24:3
51,25:9
51,29:9
51,33:9
51,34:1
51,40:11
52,2:11
52,5:1
52,7:9
52,10:6
52,14:1
52,17:6
52,18:1
52,20:6
52,22:3
52,24:3
52,25:9
52,29:9
52,33:9
52,34:1
52,40:11
53,2:9
53,7:7
53,10:4
53,17:4
53,20:4
53,22:1
53,24:1
53,25:7
53,29:7
53,33:7
53,40:9
54,2:4
54,7:2
54,25:2
54,29:2
54,33:2
54,40:4
56,2:4
56,7:2
56,25:2
56,29:2
56,33:2
56,40:4
56,55:5

<end>

<optimal SALBP-1 value>
27


<rand seed>
467321153

